14 91 14
0 1 153
0 2 510
0 3 706
0 4 966
0 5 581
0 6 455
0 7 70
0 8 160
0 9 372
0 10 157
0 11 567
0 12 342
0 13 398
1 2 422
1 3 664
1 4 997
1 5 598
1 6 507
1 7 197
1 8 311
1 9 479
1 10 310
1 11 581
1 12 417
1 13 376
2 3 289
2 4 744
2 5 390
2 6 437
2 7 491
2 8 645
2 9 880
2 10 618
2 11 374
2 12 455
2 13 211
3 4 491
3 5 265
3 6 410
3 7 664
3 8 804
3 9 1070
3 10 768
3 11 259
3 12 499
3 13 310
4 5 400
4 6 514
4 7 902
4 8 990
4 9 1261
4 10 947
4 11 418
4 12 635
4 13 636
5 6 168
5 7 522
5 8 634
5 9 910
5 10 593
5 11 19
5 12 284
5 13 239
6 7 389
6 8 482
6 9 757
6 10 439
6 11 163
6 12 124
6 13 232
7 8 154
7 9 406
7 10 133
7 11 508
7 12 273
7 13 355
8 9 276
8 10 43
8 11 623
8 12 358
8 13 498
9 10 318
9 11 898
9 12 633
9 13 761
10 11 582
10 12 315
10 13 464
11 12 275
11 13 221
12 13 247
0
1
2
3
4
5
6
7
8
9
10
11
12
13
